nPeces = 20;

durada = [45,45,50,35,20,10,30,25,10,10,15,45,35,40,15,5,45,20,35,10];

nInstruments = 4;

requereix = [| 2, 2, 2, 3, 
| 1, 2, 2, 2, 
| 2, 2, 1, 1, 
| 2, 1, 3, 3, 
| 1, 3, 2, 3, 
| 3, 3, 2, 1, 
| 1, 2, 2, 2, 
| 2, 3, 3, 1, 
| 3, 3, 2, 2, 
| 3, 3, 2, 3, 
| 1, 1, 1, 2, 
| 3, 3, 1, 1, 
| 3, 1, 3, 1, 
| 2, 2, 2, 3, 
| 2, 2, 3, 1, 
| 1, 3, 2, 1, 
| 2, 1, 1, 2, 
| 1, 3, 1, 1, 
| 2, 3, 2, 2, 
| 2, 2, 3, 1, 
|];

nMusics = 20;

saptocar = [| true, true, false, true, 
| true, false, true, true, 
| false, false, false, true, 
| false, true, false, false, 
| false, true, true, true, 
| false, false, true, false, 
| true, true, false, true, 
| false, true, true, false, 
| true, false, true, false, 
| false, true, false, false, 
| true, false, true, false, 
| true, true, true, false, 
| false, false, true, true, 
| false, true, false, true, 
| true, true, true, false, 
| false, true, false, false, 
| false, true, true, true, 
| true, false, false, false, 
| true, true, true, false, 
| true, false, true, true, 
|];

pressupost = 2260;

salari = [3,3,2,2,3,2,3,2,2,2,2,3,2,2,3,2,3,2,3,3];

nPrecs = 25;
pred = [1,1,1,2,2,2,3,3,4,5,5,6,7,8,8,9,10,11,12,13,14,15,16,17,17];
succ = [9,18,4,11,5,6,20,15,20,8,14,7,16,20,13,10,19,12,13,18,19,17,17,18,19];

